1 1961
2 1705
3 1702
4 1642
5 1633
8 1599
12 1554
15 1498
19 1482
28 1478
170 1463
270 1405



1 1787
2 1708
3 1643
6 1610
14 1602
16 1592
18 1582
19 1521
25 1446



1 1994
2 1727
3 1707
4 1616
5 1589
6 1500
26 1497
48 1495
94 1489
164 1451
280 1443
740 1437
845 1422



1 2024
2 1610
9 1558
12 1526
14 1523
22 1505
58 1490
100 1449
201 1432
533 1431
650 1429



1 1856
2 1642
4 1634
5 1600
6 1562
7 1554
13 1535
24 1531
26 1506
47 1481
218 1457
360 1446
464 1439



